language ESSENCE' 1.0

letting jobs = 102
letting horizon = 797
letting resourcesRenew = 2
letting resourcesNonrenew = 2
letting resourceLimits = [38, 39, 526, 540]
letting successors = [[2, 3, 4, 5, 6, 7, 8, 9, 10, 11, 12, 13, 14, 15, 16, 17, 20, 22, 23, 30, 35], [53, 44, 37, 34, 33, 29, 27, 26, 25, 24, 19, 18], [51, 48, 42, 36, 34, 28, 21, 19, 18], [51, 48, 41, 34, 31, 28, 21, 18], [53, 36, 34, 31, 25, 21, 19], [66, 48, 47, 39, 38, 36, 34, 27, 26], [53, 48, 47, 46, 38, 34, 32, 18], [53, 48, 27, 21, 19], [53, 48, 36, 21, 18], [51, 48, 47, 46, 40, 36, 34, 25], [53, 47, 38, 27, 18], [47, 46, 34, 33, 18], [66, 63, 61, 53, 50, 49, 48, 47, 45, 42, 39, 34, 27], [47, 46, 45, 19], [63, 61, 58, 54, 53, 51, 49, 48, 47, 42, 33, 28], [66, 57, 51, 50, 47, 46, 45, 40, 38, 34], [66, 60, 59, 58, 50, 49, 47, 46, 45, 39, 38], [101, 77, 69, 66, 63, 61, 54, 50, 45, 43, 40, 39], [77, 69, 66, 50, 43, 40, 39, 38], [72, 69, 67, 66, 63, 53, 47, 45, 43, 40, 39], [67, 66, 65, 60, 59, 58, 56, 52, 47, 46, 45, 38], [67, 58, 57, 52, 46, 44, 38, 37], [74, 63, 54, 51, 50, 47, 46, 45, 42, 39], [78, 74, 72, 69, 63, 59, 56, 55, 54, 50, 49, 48, 47, 42], [101, 78, 77, 74, 72, 67, 66, 63, 61, 54, 45, 43, 39], [101, 77, 69, 67, 63, 59, 57, 45, 40], [77, 74, 73, 67, 65, 56, 55, 46, 43], [77, 74, 70, 67, 65, 60, 46, 45], [101, 100, 83, 81, 77, 74, 73, 71, 70, 69, 65, 64, 62, 60, 59, 57, 55], [101, 100, 81, 74, 73, 72, 71, 64, 62, 57, 56, 55, 48], [101, 100, 98, 83, 78, 73, 65, 63, 59, 55, 50, 47], [100, 78, 77, 76, 69, 66, 65, 57, 56, 43], [100, 78, 77, 74, 73, 72, 65, 64, 59, 52, 50], [101, 78, 77, 74, 67, 65, 55, 43], [77, 74, 67, 66, 65, 60, 43], [100, 98, 78, 77, 76, 73, 70, 68, 65, 64, 63, 57, 50], [81, 77, 74, 73, 71, 70, 69, 68, 66, 65, 64, 62, 60], [101, 100, 82, 78, 75, 74, 72, 71, 63, 61, 55, 54], [100, 76, 65, 64, 62, 57, 56, 55, 52], [81, 80, 78, 74, 71, 60, 58, 55, 49], [100, 96, 83, 80, 78, 77, 76, 75, 66, 60, 52], [100, 99, 96, 83, 76, 64, 57, 52], [83, 64, 62, 59, 52], [98, 82, 81, 74, 73, 70, 64, 59, 55], [100, 98, 94, 83, 76, 73, 71, 62, 55], [101, 96, 92, 90, 88, 83, 82, 81, 80, 75, 72, 69], [97, 94, 81, 79, 77, 71, 70, 68, 64], [98, 97, 96, 95, 92, 77, 76, 75, 68, 60], [99, 98, 97, 96, 93, 92, 83, 82, 79, 75, 65], [94, 90, 82, 79, 75, 67, 62], [98, 97, 96, 92, 88, 83, 80, 79, 77, 68], [98, 97, 94, 82, 81, 79, 71, 70], [98, 96, 94, 93, 92, 91, 90, 89, 88, 77, 71], [88, 83, 81, 79, 70, 68], [97, 96, 95, 88, 87, 86, 79, 68], [94, 93, 91, 89, 88, 83, 79, 70], [94, 93, 92, 90, 89, 88, 84, 80, 75], [100, 95, 91, 83, 79, 70], [95, 87, 86, 79, 68], [94, 93, 90, 89, 88, 86, 85, 82, 79], [98, 97, 96, 94, 92, 90, 89, 87, 76], [97, 96, 92, 91, 88, 85, 84, 80], [95, 93, 91, 90, 89, 86, 85, 79], [92, 88, 84, 80, 75], [94, 91, 90, 89, 88, 87, 86], [98, 95, 88, 87, 86, 85, 84], [95, 88, 85, 81, 80], [99, 93, 91, 90, 89, 85], [98, 93, 91, 86, 79], [92, 90, 86, 85, 84], [95, 87, 86, 85, 84], [97, 94, 87, 85, 84], [96, 92, 88, 86], [96, 76], [86, 85], [88, 84], [86, 84], [89, 85], [84], [87], [89], [91], [87], [102], [102], [102], [102], [102], [102], [102], [102], [102], [102], [102], [102], [102], [102], [102], [102], [102], [102], []]
letting durations = [[0], [3, 6, 9], [1, 7, 8], [3, 5, 6], [5, 6, 8], [1, 7, 10], [1, 8, 9], [6, 9, 10], [3, 7, 10], [4, 8, 9], [3, 7, 9], [1, 3, 8], [1, 4, 6], [3, 4, 6], [2, 6, 8], [5, 6, 7], [4, 5, 7], [4, 6, 9], [1, 5, 7], [6, 8, 10], [3, 5, 6], [1, 4, 7], [1, 2, 6], [5, 7, 8], [3, 8, 10], [1, 2, 10], [3, 4, 9], [1, 6, 9], [1, 7, 8], [6, 7, 8], [1, 7, 8], [3, 4, 5], [3, 4, 10], [4, 5, 7], [1, 9, 10], [2, 7, 9], [4, 5, 6], [2, 5, 10], [1, 6, 10], [6, 7, 8], [4, 7, 10], [5, 6, 7], [3, 5, 8], [1, 8, 10], [8, 9, 10], [7, 8, 10], [1, 2, 5], [1, 2, 7], [2, 5, 6], [3, 4, 10], [3, 8, 9], [1, 5, 10], [3, 4, 6], [2, 4, 5], [3, 5, 6], [5, 9, 10], [2, 3, 4], [2, 3, 10], [4, 5, 10], [4, 8, 10], [1, 8, 10], [1, 5, 8], [6, 7, 9], [1, 4, 10], [3, 4, 7], [2, 4, 6], [1, 4, 10], [2, 8, 10], [1, 2, 4], [1, 4, 9], [7, 8, 9], [1, 4, 5], [6, 8, 9], [2, 3, 4], [1, 3, 7], [4, 5, 6], [3, 6, 10], [2, 5, 8], [5, 6, 7], [4, 9, 10], [2, 3, 5], [3, 5, 7], [3, 4, 5], [3, 9, 10], [6, 7, 8], [7, 8, 9], [5, 8, 9], [1, 3, 6], [8, 9, 10], [2, 6, 7], [1, 2, 7], [1, 2, 9], [2, 3, 6], [4, 5, 6], [2, 3, 6], [1, 4, 8], [2, 3, 4], [1, 4, 6], [7, 9, 10], [4, 5, 9], [4, 8, 9], [0]]
letting resourceUsage = [[[0, 0, 0, 0]], [[4, 2, 5, 5], [4, 1, 5, 5], [4, 1, 5, 4]], [[4, 4, 1, 7], [4, 4, 1, 5], [2, 4, 1, 5]], [[2, 3, 3, 1], [1, 1, 3, 2], [1, 1, 3, 1]], [[3, 5, 8, 7], [2, 3, 8, 5], [1, 2, 8, 5]], [[4, 4, 8, 9], [4, 4, 7, 6], [4, 4, 7, 4]], [[3, 5, 3, 10], [3, 4, 3, 5], [3, 3, 3, 1]], [[3, 3, 5, 7], [3, 3, 5, 5], [2, 3, 5, 3]], [[4, 3, 9, 9], [3, 3, 6, 7], [3, 3, 4, 6]], [[5, 3, 8, 2], [3, 3, 6, 2], [3, 3, 6, 1]], [[5, 3, 4, 9], [2, 3, 4, 6], [1, 3, 4, 4]], [[2, 4, 3, 5], [2, 3, 2, 4], [2, 1, 2, 3]], [[2, 3, 5, 4], [2, 3, 4, 3], [2, 3, 4, 2]], [[4, 1, 8, 8], [4, 1, 7, 4], [4, 1, 6, 4]], [[5, 2, 10, 7], [4, 2, 7, 7], [4, 1, 6, 7]], [[4, 5, 1, 9], [3, 5, 1, 7], [2, 5, 1, 7]], [[2, 3, 9, 7], [2, 2, 6, 7], [2, 2, 2, 7]], [[4, 4, 10, 4], [3, 2, 6, 4], [2, 1, 3, 4]], [[5, 5, 6, 7], [4, 4, 5, 7], [3, 4, 5, 6]], [[3, 3, 7, 10], [3, 2, 7, 7], [3, 1, 6, 7]], [[3, 2, 5, 9], [2, 1, 4, 8], [2, 1, 1, 8]], [[3, 5, 7, 9], [3, 4, 5, 8], [1, 4, 4, 8]], [[3, 5, 8, 6], [3, 4, 7, 5], [2, 2, 4, 3]], [[2, 3, 7, 7], [2, 3, 7, 3], [2, 3, 7, 2]], [[5, 4, 3, 3], [3, 3, 2, 3], [2, 3, 2, 1]], [[4, 3, 6, 3], [4, 3, 5, 2], [4, 3, 5, 1]], [[3, 3, 10, 9], [3, 2, 9, 9], [2, 2, 9, 9]], [[4, 4, 6, 5], [4, 2, 4, 4], [4, 2, 3, 4]], [[3, 2, 4, 9], [3, 1, 3, 10], [3, 1, 3, 9]], [[4, 4, 4, 5], [3, 4, 3, 3], [3, 4, 3, 2]], [[4, 4, 8, 4], [3, 4, 7, 3], [1, 4, 7, 2]], [[5, 4, 5, 6], [3, 3, 3, 5], [3, 3, 2, 2]], [[3, 1, 8, 4], [1, 1, 8, 3], [1, 1, 7, 1]], [[4, 4, 2, 9], [4, 4, 1, 7], [4, 4, 1, 6]], [[2, 4, 9, 7], [1, 3, 7, 7], [1, 3, 4, 6]], [[5, 2, 10, 2], [4, 2, 7, 1], [3, 2, 5, 1]], [[2, 3, 6, 10], [2, 3, 5, 7], [2, 1, 5, 6]], [[3, 4, 6, 9], [3, 4, 5, 7], [3, 4, 5, 3]], [[4, 5, 4, 10], [2, 5, 3, 9], [2, 5, 2, 8]], [[3, 3, 2, 7], [3, 1, 2, 7], [3, 1, 2, 6]], [[5, 5, 8, 7], [4, 3, 5, 5], [4, 3, 2, 5]], [[5, 4, 3, 6], [5, 2, 3, 6], [5, 1, 2, 5]], [[1, 4, 4, 10], [1, 4, 3, 9], [1, 4, 1, 8]], [[4, 4, 2, 5], [3, 4, 2, 4], [2, 4, 2, 4]], [[5, 2, 8, 4], [2, 2, 8, 3], [1, 2, 6, 3]], [[5, 4, 8, 7], [4, 4, 7, 5], [3, 4, 7, 4]], [[2, 1, 9, 6], [1, 1, 5, 5], [1, 1, 4, 4]], [[3, 3, 9, 1], [3, 3, 7, 1], [2, 1, 6, 1]], [[2, 5, 9, 3], [2, 3, 9, 3], [2, 3, 9, 2]], [[5, 2, 10, 8], [5, 1, 9, 6], [5, 1, 9, 5]], [[4, 5, 5, 6], [2, 4, 4, 6], [1, 4, 4, 3]], [[4, 1, 7, 7], [2, 1, 5, 6], [2, 1, 4, 6]], [[3, 5, 8, 9], [3, 4, 7, 8], [2, 4, 6, 6]], [[3, 3, 10, 9], [3, 3, 9, 6], [3, 2, 8, 4]], [[5, 3, 4, 7], [4, 2, 3, 7], [4, 2, 3, 6]], [[3, 2, 8, 10], [3, 1, 6, 6], [3, 1, 5, 5]], [[3, 3, 6, 8], [2, 3, 4, 7], [2, 2, 3, 6]], [[5, 5, 5, 9], [3, 4, 3, 5], [3, 4, 1, 4]], [[4, 4, 5, 8], [3, 2, 3, 6], [3, 2, 2, 6]], [[5, 5, 4, 6], [4, 5, 2, 5], [4, 5, 1, 5]], [[4, 5, 7, 4], [3, 3, 4, 4], [3, 2, 2, 3]], [[2, 3, 1, 10], [2, 2, 1, 9], [1, 2, 1, 8]], [[3, 4, 8, 5], [1, 4, 7, 4], [1, 4, 3, 4]], [[2, 2, 9, 9], [2, 2, 5, 7], [2, 2, 2, 7]], [[4, 2, 3, 6], [3, 2, 3, 4], [3, 2, 3, 3]], [[3, 3, 10, 6], [3, 3, 9, 5], [2, 2, 7, 4]], [[2, 1, 6, 5], [1, 1, 5, 5], [1, 1, 3, 3]], [[4, 1, 9, 10], [2, 1, 8, 7], [2, 1, 5, 2]], [[2, 3, 7, 3], [1, 3, 6, 2], [1, 3, 4, 2]], [[4, 5, 9, 8], [3, 4, 9, 7], [2, 4, 9, 5]], [[2, 5, 8, 8], [1, 3, 7, 7], [1, 2, 6, 7]], [[3, 2, 7, 10], [3, 1, 4, 7], [1, 1, 3, 6]], [[2, 4, 7, 5], [1, 2, 5, 5], [1, 2, 4, 5]], [[4, 3, 8, 5], [4, 3, 7, 5], [4, 3, 7, 3]], [[5, 3, 4, 9], [4, 2, 2, 7], [4, 1, 2, 7]], [[4, 5, 6, 4], [2, 3, 6, 2], [2, 3, 6, 1]], [[4, 5, 8, 5], [4, 3, 6, 4], [4, 3, 5, 4]], [[2, 4, 6, 7], [1, 2, 5, 6], [1, 2, 4, 6]], [[3, 5, 1, 5], [2, 4, 1, 5], [2, 4, 1, 4]], [[5, 2, 8, 7], [4, 2, 7, 5], [3, 2, 4, 3]], [[2, 2, 5, 9], [1, 2, 5, 9], [1, 2, 5, 8]], [[4, 5, 7, 4], [4, 4, 3, 2], [4, 4, 3, 1]], [[5, 4, 9, 8], [4, 2, 3, 8], [4, 1, 1, 8]], [[4, 3, 8, 4], [3, 3, 7, 4], [3, 3, 5, 4]], [[3, 2, 4, 6], [1, 1, 3, 4], [1, 1, 3, 2]], [[4, 4, 9, 3], [4, 4, 6, 1], [3, 4, 5, 1]], [[4, 4, 6, 4], [2, 4, 5, 4], [1, 4, 4, 2]], [[2, 3, 6, 5], [2, 3, 4, 4], [2, 1, 4, 2]], [[4, 4, 8, 3], [4, 3, 8, 2], [4, 3, 7, 2]], [[5, 4, 9, 5], [3, 3, 9, 5], [3, 3, 9, 4]], [[2, 3, 10, 7], [2, 3, 7, 6], [2, 2, 3, 6]], [[3, 4, 8, 6], [3, 3, 8, 5], [2, 3, 6, 3]], [[1, 3, 9, 5], [1, 3, 6, 4], [1, 2, 6, 4]], [[5, 5, 8, 5], [3, 3, 5, 3], [3, 3, 1, 3]], [[2, 2, 6, 5], [1, 2, 6, 4], [1, 1, 3, 4]], [[4, 3, 5, 8], [2, 2, 5, 6], [1, 1, 4, 4]], [[4, 5, 2, 7], [3, 4, 1, 6], [2, 4, 1, 3]], [[2, 4, 8, 9], [2, 4, 6, 9], [1, 4, 4, 9]], [[5, 4, 5, 7], [5, 3, 4, 5], [5, 3, 4, 4]], [[4, 2, 3, 6], [4, 2, 3, 3], [3, 2, 2, 2]], [[3, 3, 9, 4], [2, 3, 7, 3], [2, 3, 4, 2]], [[0, 0, 0, 0]]]
